mznc2017_probs/tc-graph-color/k10_31.dzn
a = array2d(1..10, 1..25, [4, 1, 2, 3, 2, 1, 5, 2, 3, 5, 3, 2, 4, 4, 3, 2, 1, 4, 5, 2, 4, 4, 4, 5, 5, 1, 3, 2, 1, 2, 3, 5, 3, 2, 5, 1, 2, 4, 4, 1, 2, 3, 4, 3, 2, 4, 4, 4, 5, 5, 4, 3, 2, 4, 2, 5, 5, 3, 1, 1, 4, 2, 4, 1, 1, 2, 3, 1, 3, 2, 4, 4, 5, 5, 3, 4, 3, 5, 4, 3, 5, 2, 3, 1, 1, 4, 5, 4, 1, 1, 3, 1, 1, 2, 3, 4, 4, 5, 2, 2, 4, 3, 5, 4, 3, 5, 2, 3, 1, 1, 4, 5, 4, 1, 1, 3, 1, 1, 2, 3, 4, 4, 5, 2, 2, 4, 3, 5, 4, 3, 5, 2, 3, 1, 1, 4, 5, 4, 1, 1, 3, 1, 1, 2, 3, 4, 4, 5, 2, 2, 4, 3, 5, 4, 3, 5, 2, 3, 1, 1, 4, 5, 4, 1, 1, 3, 1, 1, 2, 3, 4, 4, 5, 2, 2, 4, 3, 5, 4, 3, 5, 2, 3, 1, 1, 4, 5, 4, 1, 1, 3, 1, 1, 2, 3, 4, 4, 5, 2, 2, 4, 3, 5, 4, 3, 5, 2, 3, 1, 1, 4, 5, 4, 1, 1, 3, 1, 1, 2, 3, 4, 4, 5, 2, 2, 4, 3, 5, 4, 3, 5, 2, 3, 1, 1, 4, 5, 4, 1, 1, 3, 1, 1, 2, 3, 4, 4, 5, 2, 2]);
objective = 434;
s = 4;
----------
a = array2d(1..10, 1..25, [4, 1, 2, 3, 2, 1, 5, 2, 3, 5, 3, 2, 4, 4, 3, 2, 1, 4, 5, 2, 4, 4, 4, 5, 5, 1, 3, 2, 1, 2, 3, 5, 3, 3, 5, 1, 2, 4, 4, 1, 2, 3, 4, 3, 2, 4, 4, 4, 5, 5, 4, 3, 2, 4, 2, 5, 5, 3, 1, 1, 4, 2, 4, 1, 1, 2, 3, 1, 3, 2, 4, 4, 5, 5, 3, 4, 3, 5, 4, 3, 5, 2, 3, 1, 1, 4, 5, 4, 1, 1, 3, 1, 1, 2, 3, 4, 4, 5, 2, 2, 4, 3, 5, 4, 3, 5, 2, 3, 1, 1, 4, 5, 4, 1, 1, 3, 1, 1, 2, 3, 4, 4, 5, 2, 2, 4, 3, 5, 4, 3, 5, 2, 3, 1, 1, 4, 5, 4, 1, 1, 3, 1, 1, 2, 3, 4, 4, 5, 2, 2, 4, 3, 5, 4, 3, 5, 2, 3, 1, 1, 4, 5, 4, 1, 1, 3, 1, 1, 2, 3, 4, 4, 5, 2, 2, 4, 3, 5, 4, 3, 5, 2, 3, 1, 1, 4, 5, 4, 1, 1, 3, 1, 1, 2, 3, 4, 4, 5, 2, 2, 4, 3, 5, 4, 3, 5, 2, 3, 1, 1, 4, 5, 4, 1, 1, 3, 1, 1, 2, 3, 4, 4, 5, 2, 2, 4, 3, 5, 4, 3, 5, 2, 3, 1, 1, 4, 5, 4, 1, 1, 3, 1, 1, 2, 3, 4, 4, 5, 2, 2]);
objective = 433;
s = 4;
----------
a = array2d(1..10, 1..25, [4, 1, 2, 3, 2, 1, 5, 2, 3, 5, 3, 2, 4, 4, 3, 2, 1, 4, 5, 2, 4, 4, 4, 5, 5, 1, 3, 2, 4, 2, 3, 5, 2, 3, 5, 4, 2, 4, 1, 1, 2, 3, 1, 5, 2, 4, 4, 1, 5, 5, 1, 3, 2, 4, 3, 2, 2, 3, 3, 5, 4, 2, 4, 1, 1, 3, 5, 1, 2, 3, 4, 4, 1, 5, 5, 4, 3, 5, 4, 3, 5, 2, 3, 1, 1, 4, 5, 4, 1, 1, 3, 1, 1, 2, 3, 4, 4, 5, 2, 2, 4, 3, 5, 4, 3, 5, 2, 3, 1, 1, 4, 5, 4, 1, 1, 3, 1, 1, 2, 3, 4, 4, 5, 2, 2, 4, 3, 5, 4, 3, 5, 2, 3, 1, 1, 4, 5, 4, 1, 1, 3, 1, 1, 2, 3, 4, 4, 5, 2, 2, 4, 3, 5, 4, 3, 5, 2, 3, 1, 1, 4, 5, 4, 1, 1, 3, 1, 1, 2, 3, 4, 4, 5, 2, 2, 4, 3, 5, 4, 3, 5, 2, 3, 1, 1, 4, 5, 4, 1, 1, 3, 1, 1, 2, 3, 4, 4, 5, 2, 2, 4, 3, 5, 4, 3, 5, 2, 3, 1, 1, 4, 5, 4, 1, 1, 3, 1, 1, 2, 3, 4, 4, 5, 2, 2, 4, 3, 5, 4, 3, 5, 2, 3, 1, 1, 4, 5, 4, 1, 1, 3, 1, 1, 2, 3, 4, 4, 5, 2, 2]);
objective = 432;
s = 4;
----------
a = array2d(1..10, 1..25, [4, 1, 2, 3, 2, 1, 5, 2, 3, 5, 3, 2, 4, 4, 3, 2, 1, 4, 5, 2, 4, 4, 4, 5, 5, 1, 3, 2, 4, 2, 3, 5, 2, 3, 5, 4, 2, 4, 1, 1, 2, 3, 1, 5, 2, 4, 4, 1, 5, 5, 4, 3, 2, 4, 2, 3, 5, 2, 1, 1, 4, 5, 4, 1, 1, 2, 1, 1, 3, 3, 4, 4, 5, 5, 2, 4, 3, 5, 4, 3, 5, 2, 3, 1, 1, 4, 5, 4, 1, 1, 3, 1, 1, 2, 3, 4, 4, 5, 2, 2, 4, 3, 5, 4, 3, 5, 2, 3, 1, 1, 4, 5, 4, 1, 1, 3, 1, 1, 2, 3, 4, 4, 5, 2, 2, 4, 3, 5, 4, 3, 5, 2, 3, 1, 1, 4, 5, 4, 1, 1, 3, 1, 1, 2, 3, 4, 4, 5, 2, 2, 4, 3, 5, 4, 3, 5, 2, 3, 1, 1, 4, 5, 4, 1, 1, 3, 1, 1, 2, 3, 4, 4, 5, 2, 2, 4, 3, 5, 4, 3, 5, 2, 3, 1, 1, 4, 5, 4, 1, 1, 3, 1, 1, 2, 3, 4, 4, 5, 2, 2, 4, 3, 5, 4, 3, 5, 2, 3, 1, 1, 4, 5, 4, 1, 1, 3, 1, 1, 2, 3, 4, 4, 5, 2, 2, 4, 3, 5, 4, 3, 5, 2, 3, 1, 1, 4, 5, 4, 1, 1, 3, 1, 1, 2, 3, 4, 4, 5, 2, 2]);
objective = 431;
s = 4;
----------
a = array2d(1..10, 1..25, [4, 1, 2, 3, 2, 1, 5, 2, 3, 5, 3, 2, 4, 4, 3, 2, 1, 4, 5, 2, 4, 4, 4, 5, 5, 1, 3, 2, 4, 2, 3, 5, 2, 3, 5, 4, 2, 4, 1, 1, 2, 3, 1, 5, 2, 4, 4, 1, 5, 5, 4, 3, 2, 4, 2, 5, 5, 2, 3, 1, 4, 5, 4, 1, 1, 3, 1, 1, 2, 3, 4, 4, 5, 5, 2, 4, 3, 5, 4, 3, 5, 2, 3, 1, 1, 4, 5, 4, 1, 1, 3, 1, 1, 2, 3, 4, 4, 5, 2, 2, 4, 3, 5, 4, 3, 5, 2, 3, 1, 1, 4, 5, 4, 1, 1, 3, 1, 1, 2, 3, 4, 4, 5, 2, 2, 4, 3, 5, 4, 3, 5, 2, 3, 1, 1, 4, 5, 4, 1, 1, 3, 1, 1, 2, 3, 4, 4, 5, 2, 2, 4, 3, 5, 4, 3, 5, 2, 3, 1, 1, 4, 5, 4, 1, 1, 3, 1, 1, 2, 3, 4, 4, 5, 2, 2, 4, 3, 5, 4, 3, 5, 2, 3, 1, 1, 4, 5, 4, 1, 1, 3, 1, 1, 2, 3, 4, 4, 5, 2, 2, 4, 3, 5, 4, 3, 5, 2, 3, 1, 1, 4, 5, 4, 1, 1, 3, 1, 1, 2, 3, 4, 4, 5, 2, 2, 4, 3, 5, 4, 3, 5, 2, 3, 1, 1, 4, 5, 4, 1, 1, 3, 1, 1, 2, 3, 4, 4, 5, 2, 2]);
objective = 430;
s = 4;
----------
a = array2d(1..10, 1..25, [4, 1, 2, 3, 2, 1, 5, 2, 3, 5, 3, 2, 4, 4, 3, 2, 1, 4, 5, 2, 4, 4, 4, 5, 5, 4, 1, 2, 2, 1, 2, 2, 2, 3, 5, 5, 2, 4, 4, 1, 3, 1, 4, 2, 3, 4, 4, 4, 5, 1, 4, 3, 2, 2, 3, 5, 2, 2, 3, 1, 4, 5, 4, 1, 1, 3, 1, 1, 2, 3, 4, 4, 5, 5, 2, 4, 3, 5, 4, 3, 5, 2, 3, 1, 1, 4, 5, 4, 1, 1, 3, 1, 1, 2, 3, 4, 4, 5, 2, 2, 4, 3, 5, 4, 3, 5, 2, 3, 1, 1, 4, 5, 4, 1, 1, 3, 1, 1, 2, 3, 4, 4, 5, 2, 2, 4, 3, 5, 4, 3, 5, 2, 3, 1, 1, 4, 5, 4, 1, 1, 3, 1, 1, 2, 3, 4, 4, 5, 2, 2, 4, 3, 5, 4, 3, 5, 2, 3, 1, 1, 4, 5, 4, 1, 1, 3, 1, 1, 2, 3, 4, 4, 5, 2, 2, 4, 3, 5, 4, 3, 5, 2, 3, 1, 1, 4, 5, 4, 1, 1, 3, 1, 1, 2, 3, 4, 4, 5, 2, 2, 4, 3, 5, 4, 3, 5, 2, 3, 1, 1, 4, 5, 4, 1, 1, 3, 1, 1, 2, 3, 4, 4, 5, 2, 2, 4, 3, 5, 4, 3, 5, 2, 3, 1, 1, 4, 5, 4, 1, 1, 3, 1, 1, 2, 3, 4, 4, 5, 2, 2]);
objective = 429;
s = 4;
----------
a = array2d(1..10, 1..25, [4, 1, 2, 3, 2, 1, 5, 2, 3, 5, 3, 2, 4, 4, 3, 2, 1, 4, 5, 2, 4, 4, 4, 5, 5, 4, 1, 2, 2, 3, 2, 2, 2, 3, 5, 5, 2, 4, 4, 1, 3, 1, 4, 2, 3, 4, 4, 4, 5, 1, 4, 3, 2, 2, 3, 5, 2, 2, 1, 1, 4, 5, 4, 1, 1, 3, 1, 1, 2, 3, 4, 4, 5, 5, 2, 4, 3, 5, 4, 3, 5, 2, 3, 1, 1, 4, 5, 4, 1, 1, 3, 1, 1, 2, 3, 4, 4, 5, 2, 2, 4, 3, 5, 4, 3, 5, 2, 3, 1, 1, 4, 5, 4, 1, 1, 3, 1, 1, 2, 3, 4, 4, 5, 2, 2, 4, 3, 5, 4, 3, 5, 2, 3, 1, 1, 4, 5, 4, 1, 1, 3, 1, 1, 2, 3, 4, 4, 5, 2, 2, 4, 3, 5, 4, 3, 5, 2, 3, 1, 1, 4, 5, 4, 1, 1, 3, 1, 1, 2, 3, 4, 4, 5, 2, 2, 4, 3, 5, 4, 3, 5, 2, 3, 1, 1, 4, 5, 4, 1, 1, 3, 1, 1, 2, 3, 4, 4, 5, 2, 2, 4, 3, 5, 4, 3, 5, 2, 3, 1, 1, 4, 5, 4, 1, 1, 3, 1, 1, 2, 3, 4, 4, 5, 2, 2, 4, 3, 5, 4, 3, 5, 2, 3, 1, 1, 4, 5, 4, 1, 1, 3, 1, 1, 2, 3, 4, 4, 5, 2, 2]);
objective = 428;
s = 4;
----------
a = array2d(1..10, 1..25, [4, 1, 2, 3, 2, 1, 5, 2, 3, 5, 3, 2, 4, 4, 3, 2, 1, 4, 5, 2, 4, 4, 4, 5, 5, 4, 1, 2, 4, 2, 5, 5, 2, 3, 3, 3, 2, 4, 4, 1, 2, 1, 4, 3, 2, 4, 4, 5, 5, 1, 4, 3, 2, 4, 2, 5, 5, 2, 1, 1, 4, 5, 4, 1, 1, 2, 1, 1, 3, 3, 4, 4, 5, 5, 2, 4, 3, 5, 4, 3, 5, 2, 3, 1, 1, 4, 5, 4, 1, 1, 3, 1, 1, 2, 3, 4, 4, 5, 2, 2, 4, 3, 5, 4, 3, 5, 2, 3, 1, 1, 4, 5, 4, 1, 1, 3, 1, 1, 2, 3, 4, 4, 5, 2, 2, 4, 3, 5, 4, 3, 5, 2, 3, 1, 1, 4, 5, 4, 1, 1, 3, 1, 1, 2, 3, 4, 4, 5, 2, 2, 4, 3, 5, 4, 3, 5, 2, 3, 1, 1, 4, 5, 4, 1, 1, 3, 1, 1, 2, 3, 4, 4, 5, 2, 2, 4, 3, 5, 4, 3, 5, 2, 3, 1, 1, 4, 5, 4, 1, 1, 3, 1, 1, 2, 3, 4, 4, 5, 2, 2, 4, 3, 5, 4, 3, 5, 2, 3, 1, 1, 4, 5, 4, 1, 1, 3, 1, 1, 2, 3, 4, 4, 5, 2, 2, 4, 3, 5, 4, 3, 5, 2, 3, 1, 1, 4, 5, 4, 1, 1, 3, 1, 1, 2, 3, 4, 4, 5, 2, 2]);
objective = 427;
s = 4;
----------
==========
